HUN,8,6,408
5,22,1,18,0,24,2,4,4,29,3,30
0,22,3,4,2,9,5,22,1,29,4,10
5,3,4,6,1,4,0,30,3,22,2,29
4,19,2,4,5,29,0,10,3,16,1,4
4,4,5,5,3,10,0,14,1,25,2,11
3,28,1,21,0,21,2,11,4,11,5,20
1,3,2,1,4,9,0,3,3,7,5,21
5,6,0,26,1,17,2,19,3,27,4,22
